c Reduced graph for p38_1 generated by Cyril Grelier
p edge 86 530
e 1 3
e 1 4
e 1 19
e 1 21
e 1 25
e 1 40
e 1 43
e 1 51
e 1 59
e 1 67
e 1 71
e 1 73
e 1 81
e 2 6
e 2 22
e 2 25
e 2 30
e 2 33
e 2 35
e 2 46
e 2 49
e 2 56
e 2 61
e 2 64
e 2 71
e 2 72
e 2 80
e 2 86
e 3 4
e 3 19
e 3 21
e 3 25
e 3 33
e 3 43
e 3 45
e 3 47
e 3 59
e 3 65
e 4 12
e 4 13
e 4 19
e 4 20
e 4 21
e 4 25
e 4 35
e 4 39
e 4 43
e 4 59
e 4 69
e 4 76
e 5 8
e 5 11
e 5 15
e 5 23
e 5 24
e 5 26
e 5 28
e 5 32
e 5 36
e 5 46
e 5 58
e 5 78
e 6 12
e 6 25
e 6 37
e 6 46
e 6 47
e 6 49
e 6 56
e 6 61
e 6 64
e 6 80
e 6 85
e 7 16
e 7 18
e 7 20
e 7 29
e 7 30
e 7 41
e 7 53
e 7 67
e 7 77
e 7 80
e 8 23
e 8 32
e 8 34
e 8 46
e 8 57
e 8 58
e 8 66
e 8 70
e 8 77
e 8 82
e 8 85
e 9 10
e 9 13
e 9 26
e 9 44
e 9 48
e 9 51
e 9 58
e 9 62
e 9 65
e 9 68
e 9 75
e 9 83
e 10 29
e 10 31
e 10 34
e 10 44
e 10 49
e 10 50
e 10 58
e 10 62
e 10 69
e 10 74
e 10 78
e 11 15
e 11 24
e 11 26
e 11 28
e 11 36
e 11 40
e 11 52
e 11 55
e 11 61
e 11 66
e 11 78
e 12 13
e 12 20
e 12 35
e 12 37
e 12 39
e 12 47
e 12 69
e 12 76
e 12 85
e 13 20
e 13 26
e 13 35
e 13 39
e 13 48
e 13 51
e 13 65
e 13 68
e 13 69
e 13 75
e 13 76
e 13 83
e 14 15
e 14 18
e 14 27
e 14 38
e 14 50
e 14 53
e 14 54
e 14 55
e 14 59
e 14 75
e 14 84
e 15 18
e 15 24
e 15 26
e 15 28
e 15 36
e 15 78
e 15 84
e 16 17
e 16 18
e 16 24
e 16 27
e 16 29
e 16 30
e 16 60
e 16 73
e 17 24
e 17 27
e 17 32
e 17 41
e 17 60
e 17 72
e 17 73
e 17 83
e 18 29
e 18 30
e 18 84
e 19 21
e 19 22
e 19 23
e 19 25
e 19 43
e 19 48
e 19 52
e 19 59
e 19 60
e 19 63
e 19 74
e 19 79
e 19 84
e 20 35
e 20 39
e 20 41
e 20 53
e 20 67
e 20 69
e 20 76
e 20 77
e 20 80
e 21 25
e 21 42
e 21 43
e 21 59
e 21 68
e 21 86
e 22 23
e 22 30
e 22 33
e 22 35
e 22 48
e 22 52
e 22 60
e 22 63
e 22 71
e 22 72
e 22 74
e 22 79
e 22 84
e 22 86
e 23 32
e 23 46
e 23 48
e 23 52
e 23 58
e 23 60
e 23 63
e 23 74
e 23 79
e 23 84
e 24 26
e 24 27
e 24 28
e 24 36
e 24 60
e 24 73
e 24 78
e 25 43
e 25 46
e 25 49
e 25 56
e 25 59
e 25 61
e 25 64
e 25 80
e 26 28
e 26 36
e 26 48
e 26 51
e 26 65
e 26 68
e 26 75
e 26 78
e 26 83
e 27 38
e 27 50
e 27 53
e 27 54
e 27 55
e 27 59
e 27 60
e 27 73
e 27 75
e 28 36
e 28 39
e 28 54
e 28 64
e 28 78
e 28 79
e 28 82
e 29 30
e 29 31
e 29 34
e 29 49
e 29 50
e 29 69
e 29 74
e 29 78
e 30 33
e 30 35
e 30 71
e 30 72
e 30 86
e 31 34
e 31 37
e 31 43
e 31 49
e 31 50
e 31 69
e 31 74
e 31 78
e 32 41
e 32 46
e 32 58
e 32 72
e 32 83
e 33 35
e 33 45
e 33 47
e 33 65
e 33 71
e 33 72
e 33 86
e 34 49
e 34 50
e 34 57
e 34 66
e 34 69
e 34 70
e 34 74
e 34 77
e 34 78
e 34 82
e 34 85
e 35 39
e 35 69
e 35 71
e 35 72
e 35 76
e 35 86
e 36 38
e 36 42
e 36 62
e 36 63
e 36 70
e 36 76
e 36 78
e 36 81
e 37 43
e 37 47
e 37 85
e 38 42
e 38 50
e 38 53
e 38 54
e 38 55
e 38 59
e 38 62
e 38 63
e 38 70
e 38 75
e 38 76
e 38 81
e 39 54
e 39 64
e 39 69
e 39 76
e 39 79
e 39 82
e 40 51
e 40 52
e 40 55
e 40 61
e 40 66
e 40 67
e 40 71
e 40 73
e 40 81
e 41 53
e 41 67
e 41 72
e 41 77
e 41 80
e 41 83
e 42 62
e 42 63
e 42 68
e 42 70
e 42 76
e 42 81
e 42 86
e 43 59
e 44 45
e 44 56
e 44 57
e 44 58
e 44 62
e 45 47
e 45 56
e 45 57
e 45 65
e 46 49
e 46 56
e 46 58
e 46 61
e 46 64
e 46 80
e 47 65
e 47 85
e 48 51
e 48 52
e 48 60
e 48 63
e 48 65
e 48 68
e 48 74
e 48 75
e 48 79
e 48 83
e 48 84
e 49 50
e 49 56
e 49 61
e 49 64
e 49 69
e 49 74
e 49 78
e 49 80
e 50 53
e 50 54
e 50 55
e 50 59
e 50 69
e 50 74
e 50 75
e 50 78
e 51 65
e 51 67
e 51 68
e 51 71
e 51 73
e 51 75
e 51 81
e 51 83
e 52 55
e 52 60
e 52 61
e 52 63
e 52 66
e 52 74
e 52 79
e 52 84
e 53 54
e 53 55
e 53 59
e 53 67
e 53 75
e 53 77
e 53 80
e 54 55
e 54 59
e 54 64
e 54 75
e 54 79
e 54 82
e 55 59
e 55 61
e 55 66
e 55 75
e 56 57
e 56 61
e 56 64
e 56 80
e 57 66
e 57 70
e 57 77
e 57 82
e 57 85
e 58 62
e 59 75
e 60 63
e 60 73
e 60 74
e 60 79
e 60 84
e 61 64
e 61 66
e 61 80
e 62 63
e 62 70
e 62 76
e 62 81
e 63 70
e 63 74
e 63 76
e 63 79
e 63 81
e 63 84
e 64 79
e 64 80
e 64 82
e 65 68
e 65 75
e 65 83
e 66 70
e 66 77
e 66 82
e 66 85
e 67 71
e 67 73
e 67 77
e 67 80
e 67 81
e 68 75
e 68 83
e 68 86
e 69 74
e 69 76
e 69 78
e 70 76
e 70 77
e 70 81
e 70 82
e 70 85
e 71 72
e 71 73
e 71 81
e 71 86
e 72 83
e 72 86
e 73 81
e 74 78
e 74 79
e 74 84
e 75 83
e 76 81
e 77 80
e 77 82
e 77 85
e 79 82
e 79 84
e 82 85
